myproject/instances/20nodes/rnd32_20.tsp
NAME : rnd32_20.tsp
TYPE : TSP
DIMENSION : 20
EDGE_WEIGHT_TYPE : EUC_2D
NODE_COORD_SECTION
1 953 258
2 255 389
3 8 540
4 655 184
5 10 279
6 649 713
7 271 370
8 198 572
9 68 274
10 701 940
11 655 887
12 950 691
13 358 335
14 428 122
15 225 899
16 51 497
17 757 743
18 844 22
19 236 724
20 185 755
